5
4
20
1 1.3 1.55 1.75 2.1
21 39 34 46 12 20 39 16 11 43 24 46 5 25 49 34 48 19 46 48 17 7 35 43 46 9 27 46 46 7 37 27 38 5 15 11 34 31 47 41 41 24 25 41 15 8 41 46 42 26 42 38 26 37 39 15 30 25 33 33 18 48 47 26 14 35 23 46 32 6 30 36 6 34 21 27 41 39 41 28 